benchmarks/bfuzz0/228211212910832106052650929842161319257.smt2
(set-logic QF_FP)
(declare-const x0 (_ FloatingPoint 11 53))
(declare-const x1 (_ FloatingPoint 11 53))
(declare-const x2 (_ FloatingPoint 11 53))
(declare-const x3 (_ FloatingPoint 11 53))
(declare-const x4 (_ FloatingPoint 11 53))
(declare-const x5 (_ FloatingPoint 11 53))
(declare-const x6 (_ FloatingPoint 11 53))
(declare-const x7 (_ FloatingPoint 11 53))
(declare-const x8 (_ FloatingPoint 11 53))
(declare-const x9 (_ FloatingPoint 11 53))
(declare-const x10 (_ FloatingPoint 11 53))
(declare-const x11 (_ FloatingPoint 11 53))
(assert (fp.gt (fp.neg (fp.neg x6)) (fp.div RNE (fp.neg x2) (fp.sub RNE x11 x0))))
(assert (fp.eq (fp.neg (fp.sub RNE x2 x11)) (fp.neg (fp.neg x9))))
(assert (fp.geq (fp.neg (fp.neg x5)) (fp.add RNE (fp.mul RNE x11 x7) (fp.mul RNE x3 x2))))
(assert (fp.eq (fp.sub RNE (fp.mul RNE x10 x1) (fp.add RNE x6 x5)) (fp.div RNE (fp.mul RNE x10 x7) (fp.div RNE x5 x1))))
(assert (fp.lt (fp.neg (fp.sub RNE x5 x4)) (fp.div RNE (fp.sub RNE x5 x7) (fp.div RNE x3 x0))))
(assert (fp.gt (fp.add RNE (fp.mul RNE x8 x9) (fp.mul RNE x7 x1)) (fp.add RNE (fp.sub RNE x11 x2) (fp.mul RNE x8 x7))))
(assert (fp.leq (fp.sub RNE (fp.mul RNE x11 x10) (fp.mul RNE x0 x11)) (fp.div RNE (fp.neg x11) (fp.mul RNE x7 x1))))
(assert (fp.leq (fp.neg (fp.mul RNE x7 x3)) (fp.div RNE (fp.sub RNE x2 x7) (fp.sub RNE x6 x2))))
(assert (fp.leq (fp.div RNE (fp.add RNE x3 x7) (fp.mul RNE x0 x6)) (fp.div RNE (fp.sub RNE x5 x7) (fp.add RNE x11 x4))))
(assert (fp.lt (fp.mul RNE (fp.add RNE x9 x11) (fp.sub RNE x4 x6)) (fp.sub RNE (fp.mul RNE x3 x6) (fp.neg x5))))
(assert (fp.lt (fp.div RNE (fp.add RNE x8 x10) (fp.neg x3)) (fp.neg (fp.div RNE x8 x5))))
(assert (fp.eq (fp.add RNE (fp.add RNE x8 x3) (fp.sub RNE x8 x10)) (fp.neg (fp.mul RNE x6 x1))))
(assert (fp.gt (fp.div RNE (fp.add RNE x2 x0) (fp.mul RNE x11 x0)) (fp.neg (fp.mul RNE x7 x9))))
(check-sat)
