db/data/228211212910832106052650929842161319257.z3.out
-------------------
2500.182976798
